0 170 
1 183 
2 186 
3 188 
4 190 
5 192 
6 193 
7 193 
8 193 
9 193 
10 192 
11 192 
12 192 
13 192 
14 191 
15 190 
16 190 
17 188 
18 187 
19 185 
20 184 
21 184 
22 184 
23 183 
24 182 
25 182 
26 182 
27 181 
28 181 
29 180 
30 178 
31 178 
32 179 
33 180 
34 179 
35 178 
36 177 
37 176 
38 176 
39 175 
40 174 
41 172 
42 169 
43 168 
44 167 
45 168 
46 168 
47 165 
48 165 
49 164 
50 163 
51 162 
52 161 
53 158 
54 158 
55 157 
56 157 
57 158 
58 158 
59 158 
60 158 
61 158 
62 158 
63 158 
64 157 
65 155 
66 153 
67 154 
68 153 
69 151 
70 150 
71 150 
72 151 
73 150 
74 150 
75 149 
76 148 
77 148 
78 148 
79 147 
80 146 
81 146 
82 150 
83 150 
84 149 
85 148 
86 147 
87 147 
88 147 
89 145 
90 144 
91 142 
92 140 
93 139 
94 137 
95 134 
96 133 
97 135 
98 134 
99 133 
100 131 
101 130 
102 128 
103 126 
104 125 
105 126 
106 126 
107 124 
108 124 
109 124 
110 123 
111 122 
112 121 
113 121 
114 119 
115 116 
116 115 
117 115 
118 117 
119 118 
120 117 
121 117 
122 115 
123 114 
124 114 
125 112 
126 111 
127 109 
128 109 
129 106 
130 105 
131 108 
132 109 
133 111 
134 112 
135 117 
136 118 
137 121 
138 121 
139 120 
140 119 
141 118 
142 116 
143 114 
144 114 
145 113 
146 112 
147 112 
148 112 
149 112 
150 111 
151 110 
152 110 
153 108 
154 109 
155 107 
156 106 
157 105 
158 104 
159 104 
160 105 
161 105 
162 105 
163 103 
164 103 
165 102 
166 101 
167 100 
168 101 
169 100 
170 102 
171 105 
172 106 
173 106 
174 108 
175 107 
176 108 
177 108 
178 107 
179 106 
180 105 
181 104 
182 104 
183 103 
184 101 
185 103 
186 103 
187 101 
188 100 
189 98 
190 97 
191 95 
192 96 
193 95 
194 94 
195 94 
196 93 
197 91 
198 90 
199 89 
200 88 
201 86 
202 86 
203 84 
204 82 
205 82 
206 83 
207 80 
208 79 
209 76 
210 76 
211 75 
212 75 
213 73 
214 74 
215 74 
216 75 
217 73 
218 72 
219 70 
220 73 
221 74 
222 74 
223 73 
224 71 
225 71 
226 71 
227 70 
228 69 
229 70 
230 68 
231 68 
232 68 
233 67 
234 65 
235 64 
236 62 
237 64 
238 65 
239 63 
240 65 
241 65 
242 63 
243 61 
244 60 
245 59 
246 58 
247 56 
248 55 
249 53 
250 53 
251 52 
252 51 
253 49 
254 48 
255 46 
256 45 
257 43 
258 43 
259 42 
260 43 
261 39 
262 36 
263 37 
264 36 
265 38 
266 37 
267 36 
268 35 
269 32 
270 32 
271 31 
272 29 
273 29 
274 29 
275 29 
276 27 
277 24 
278 23 
279 22 
280 21 
281 20 
282 21 
283 21 
284 20 
285 17 
286 16 
287 16 
288 17 
289 21 
290 21 
291 21 
292 19 
293 16 
294 14 
295 13 
296 12 
297 11 
298 11 
299 10 
300 9 
301 9 
302 8 
303 8 
304 7 
305 6 
306 6 
307 5 
308 5 
309 5 
310 4 
311 5 
312 4 
313 3 
314 2 
315 1 
316 0 
317 0 

